Linux optc-04-04 4.15.0-88-generic #88-Ubuntu SMP Tue Feb 11 20:11:34 UTC 2020 x86_64 x86_64 x86_64 GNU/Linux

top - 10:26:15 up 2 days, 21:01,  0 users,  load average: 0,32, 0,74, 0,90
Tasks: 466 gesamt,   1 laufend, 235 schlafend,   0 gestoppt,   0 Zombie
%CPU(s): 16,1 be,  4,1 sy,  0,0 ni, 79,7 un,  0,0 wa,  0,0 hi,  0,0 si,  0,0 st
KiB Spch : 65916192 gesamt, 62196764 frei,   726944 belegt,  2992484 Puff/Cache
KiB Swap:  8388604 gesamt,  8388604 frei,        0 belegt. 64613288 verfü Spch 

  PID USER      PR  NI    VIRT    RES    SHR S  %CPU %MEM     ZEIT+ BEFEHL
45887 bzfhende  20   0   52808   4404   3460 R  11,8  0,0   0:00.03 top
    1 root      20   0  233684   9260   6724 S   0,0  0,0   0:18.66 systemd
    2 root      20   0       0      0      0 S   0,0  0,0   0:00.29 kthreadd
    4 root       0 -20       0      0      0 I   0,0  0,0   0:00.00 kworker/0:+
    5 root      20   0       0      0      0 I   0,0  0,0   0:47.36 kworker/u9+
    7 root       0 -20       0      0      0 I   0,0  0,0   0:00.00 mm_percpu_+
    8 root      20   0       0      0      0 S   0,0  0,0   0:00.33 ksoftirqd/0
    9 root      20   0       0      0      0 I   0,0  0,0   1:03.11 rcu_sched

hard time limit: 00-04:10:00
hard mem limit: 38600

SLURM jobID: 6405191

@01 /nfs/OPTI/bzfhende/instances//./Pierre_Le_Bodic/instances/chromaticindex1024-7.mps.gz ===========
-----------------------------
So 8. Mär 10:26:15 CET 2020
-----------------------------
@03 1583659575
@05 7200
SCIP version 7.0.0 [precision: 8 byte] [memory: block] [mode: optimized] [LP solver: CPLEX 12.10.0.0] [GitHash: 297532de76]
Copyright (C) 2002-2020 Konrad-Zuse-Zentrum fuer Informationstechnik Berlin (ZIB)

External codes: 
  Readline 7.0         GNU library for command line editing (gnu.org/s/readline)
  CPLEX 12.10.0.0      Linear Programming Solver developed by IBM (www.cplex.com)
  CppAD 20180000.0     Algorithmic Differentiation of C++ algorithms developed by B. Bell (www.coin-or.org/CppAD)
  ZLIB 1.2.11          General purpose compression library by J. Gailly and M. Adler (zlib.net)
  GMP 6.1.2            GNU Multiple Precision Arithmetic Library developed by T. Granlund (gmplib.org)
  bliss 0.73p          Computing Graph Automorphism Groups by T. Junttila and P. Kaski (http://www.tcs.hut.fi/Software/bliss/)

user parameter file <scip.set> not found - using default parameters

SCIP> 
SCIP> set load /nfs/OPTI/bzfhende/scip-opti/check/../settings/periodic_report.sett
loaded parameter file </nfs/OPTI/bzfhende/scip-opti/check/../settings/periodic_report.set>
SCIP> set limits time 7200
limits/time = 7200
SCIP> set limits nodes 2100000000
limits/nodes = 2100000000
SCIP> set limits memory 35000
limits/memory = 35000
SCIP> set lp advanced threads 1
lp/threads = 1
SCIP> set timing clocktype 1
timing/clocktype = 1
SCIP> set display freq 10000
display/freq = 10000
SCIP> set memory savefac 1.0
memory/savefac = 1
SCIP> set save /nfs/OPTI/bzfhende/scip-opti/check/treesize.prediction.chromaticinndex/bzfhende.instancegroups_chromaticindex.22_chromaticindex1024-7.scip.M620v2.pperiodic_report.set
saved parameter file </nfs/OPTI/bzfhende/scip-opti/check/treesize.prediction.chromaticindex/bzfhende.instancegroups_chromaticindex.22_chromaticindex1024-7.scip.M620v2.periodic_report.set>
SCIP> read /nfs/OPTI/bzfhende/instances//./Pierre_Le_Bodic/instances/chromaticinddex1024-7.mps.gz

read problem </nfs/OPTI/bzfhende/instances//./Pierre_Le_Bodic/instances/chromaticindex1024-7.mps.gz>
============

original problem has 73728 variables (73728 bin, 0 int, 0 impl, 0 cont) and 67583 constraints
SCIP> display parameters

number of parameters = 2603
non-default parameter settings:
display/freq = 10000
limits/time = 7200
limits/nodes = 2100000000
limits/memory = 35000
lp/threads = 1
memory/savefac = 1
timing/clocktype = 1
estimation/restarts/restartpolicy = n
estimation/restarts/restartlimit = 0
estimation/reportfreq = 100
estimation/treeprofile/enabled = TRUE

SCIP> optimize

presolving:
(round 1, exhaustive) 0 del vars, 0 del conss, 0 add conss, 0 chg bounds, 0 chg sides, 0 chg coeffs, 67583 upgd conss, 0 impls, 67583 clqs
   (2.2s) probing: 51/73728 (0.1%) - 0 fixings, 0 aggregations, 0 implications, 0 bound changes
   (2.2s) probing aborted: 50/50 successive totally useless probings
   (2.3s) symmetry computation started: requiring (bin +, int +, cont +), (fixed: bin -, int -, cont -)
   (4.6s) symmetry computation finished: 4 generators found (max: 868, log10 of symmetry group size: 1.7)
presolving (2 rounds: 2 fast, 2 medium, 2 exhaustive):
 0 deleted vars, 0 deleted constraints, 0 added constraints, 0 tightened bounds, 0 added holes, 0 changed sides, 0 changed coefficients
 0 implications, 67583 cliques
presolved problem has 73728 variables (73728 bin, 0 int, 0 impl, 0 cont) and 67583 constraints
  67583 constraints of type <setppc>
transformed objective value is always integral (scale: 1)
Presolving Time: 4.49

 time | node  | left  |LP iter|LP it/n|mem/heur|mdpt |vars |cons |rows |cuts |sepa|confs|strbr|  dualbound   | primalbound  |  gap   | compl. 
 18.8s|     1 |     0 |     1 |     - |   860M |   0 |  73k|  67k|  67k|   0 |  0 |  52 |   0 | 3.000000e+00 |      --      |    Inf | unknown
  263s|     1 |     0 | 20214 |     - |   928M |   0 |  73k|  67k|  67k|   1 |  1 |  53 |   0 | 3.000000e+00 |      --      |    Inf | unknown
  346s|     1 |     0 | 20473 |     - |   943M |   0 |  73k|  67k|  67k|   2 |  2 |  54 |   0 | 3.000000e+00 |      --      |    Inf | unknown
  428s|     1 |     0 | 20803 |     - |   955M |   0 |  73k|  67k|  67k|   3 |  3 |  55 |   0 | 3.000000e+00 |      --      |    Inf | unknown
  511s|     1 |     0 | 21264 |     - |   971M |   0 |  73k|  67k|  67k|   4 |  4 |  56 |   0 | 3.000000e+00 |      --      |    Inf | unknown
  593s|     1 |     0 | 21559 |     - |   990M |   0 |  73k|  67k|  67k|   5 |  5 |  57 |   0 | 3.000000e+00 |      --      |    Inf | unknown
  677s|     1 |     0 | 22763 |     - |  1000M |   0 |  73k|  67k|  67k|  12 |  6 |  58 |   0 | 3.000000e+00 |      --      |    Inf | unknown
  759s|     1 |     0 | 23682 |     - |  1016M |   0 |  73k|  67k|  67k|  15 |  7 |  59 |   0 | 3.000000e+00 |      --      |    Inf | unknown
  841s|     1 |     0 | 24333 |     - |  1026M |   0 |  73k|  67k|  67k|  18 |  8 |  60 |   0 | 3.000000e+00 |      --      |    Inf | unknown
  924s|     1 |     0 | 25373 |     - |  1043M |   0 |  73k|  67k|  67k|  24 |  9 |  61 |   0 | 3.000000e+00 |      --      |    Inf | unknown
 1010s|     1 |     0 | 26010 |     - |  1057M |   0 |  73k|  67k|  67k|  26 | 10 |  62 |   0 | 3.000000e+00 |      --      |    Inf | unknown
 1092s|     1 |     0 | 26875 |     - |  1071M |   0 |  73k|  67k|  67k|  29 | 11 |  63 |   0 | 3.000000e+00 |      --      |    Inf | unknown
 1180s|     1 |     2 | 47029 |     - |  1074M |   0 |  73k|  67k|  67k|  29 | 11 |  68 |  19 | 3.000000e+00 |      --      |    Inf | unknown
Report 1
Time Elapsed: 1181.94
Estim. Tree Size   :          3
Estimation Tree    : 3 nodes (2 visited, 1 inner, 1 leaves, 1 open), weight: 0.5000 completed 0.5000
Estimations        :      estim      value      trend resolution     smooth
  wbe              :          3          -          -          -          -
  tree-profile     :         -1          -          -          -          -
  gap              :          4    0.00000    0.00000          1          4
  tree-weight      :          3    0.50000    0.50000          1          3
  leaf-frequency   :          2    0.25000    0.75000          1          2
  ssg              :          4    1.00000    0.00000          1          4
  open-nodes       :          4    1.00000    1.00000          1          4
End of Report 1

d1285s|    21 |    20 |109195 |4116.0 |distribu|  13 |  73k|  67k|  67k|   0 |  1 |  68 |  19 | 3.000000e+00 | 4.000000e+00 |  33.33%|  50.00%
Report 2
Time Elapsed: 3153.25
Estim. Tree Size   :        192
Estimation Tree    : 1011 nodes (532 visited, 505 inner, 27 leaves, 479 open), weight: 0.5156 completed 0.1891
Estimations        :      estim      value      trend resolution     smooth
  wbe              :        104          -          -          -          -
  tree-profile     :         -1          -          -          -          -
  gap              :        608    0.75000    0.00090          1        579
  tree-weight      :        192    0.51563    0.00697          1        193
  leaf-frequency   :       1064    0.04981   -0.00021          1       1060
  ssg              :       2550    1.00000   -0.00080          1       2421
  open-nodes       :       1064  479.00000   14.30264          1       1060
End of Report 2

 5411s| 10000 |   587 |460856 |  43.4 |  1219M | 384 |  73k|  68k|  67k|1314 |  1 |1024 |  19 | 3.000000e+00 | 4.000000e+00 |  33.33%|  18.91%

SCIP Status        : solving was interrupted [time limit reached]
Solving Time (sec) : 7200.02
Solving Nodes      : 17451
Primal Bound       : +4.00000000000000e+00 (1 solutions)
Dual Bound         : +3.00000000000000e+00
Gap                : 33.33 %

SCIP> display statistics

SCIP Status        : solving was interrupted [time limit reached]
Total Time         :    7200.66
  solving          :    7200.02
  presolving       :       4.49 (included in solving)
  reading          :       0.64
  copying          :       2.92 (16 #copies) (minimal 0.16, maximal 0.19, average 0.18)
Original Problem   :
  Problem name     : chromaticindex1024-7
  Variables        : 73728 (73728 binary, 0 integer, 0 implicit integer, 0 continuous)
  Constraints      : 67583 initial, 67583 maximal
  Objective        : minimize, 4 non-zeros (abs.min = 1, abs.max = 1)
Presolved Problem  :
  Problem name     : t_chromaticindex1024-7
  Variables        : 73728 (73728 binary, 0 integer, 0 implicit integer, 0 continuous)
  Constraints      : 67583 initial, 69722 maximal
  Objective        : minimize, 4 non-zeros (abs.min = 1, abs.max = 1)
  Nonzeros         : 270324 constraint, 258014 clique table
Presolvers         :   ExecTime  SetupTime  Calls  FixedVars   AggrVars   ChgTypes  ChgBounds   AddHoles    DelCons    AddCons   ChgSides   ChgCoefs
  boundshift       :       0.00       0.00      0          0          0          0          0          0          0          0          0          0
  convertinttobin  :       0.00       0.00      0          0          0          0          0          0          0          0          0          0
  domcol           :       0.09       0.00      1          0          0          0          0          0          0          0          0          0
  dualagg          :       0.00       0.00      0          0          0          0          0          0          0          0          0          0
  dualcomp         :       0.00       0.00      0          0          0          0          0          0          0          0          0          0
  dualinfer        :       0.00       0.00      0          0          0          0          0          0          0          0          0          0
  dualsparsify     :       0.11       0.00      1          0          0          0          0          0          0          0          0          0
  gateextraction   :       0.00       0.00      0          0          0          0          0          0          0          0          0          0
  implics          :       0.01       0.00      2          0          0          0          0          0          0          0          0          0
  inttobinary      :       0.00       0.00      0          0          0          0          0          0          0          0          0          0
  qpkktref         :       0.00       0.00      0          0          0          0          0          0          0          0          0          0
  redvub           :       0.00       0.00      0          0          0          0          0          0          0          0          0          0
  sparsify         :       0.14       0.00      1          0          0          0          0          0          0          0          0          0
  stuffing         :       0.00       0.00      0          0          0          0          0          0          0          0          0          0
  trivial          :       0.01       0.00      2          0          0          0          0          0          0          0          0          0
  tworowbnd        :       0.14       0.00      1          0          0          0          0          0          0          0          0          0
  dualfix          :       0.00       0.00      2          0          0          0          0          0          0          0          0          0
  genvbounds       :       0.00       0.00      0          0          0          0          0          0          0          0          0          0
  probing          :       0.67       0.01      1          0          0          0          0          0          0          0          0          0
  pseudoobj        :       0.00       0.00      0          0          0          0          0          0          0          0          0          0
  symmetry         :       2.35       0.00      1          0          0          0          0          0          0          0          0          0
  vbounds          :       0.03       0.00      1          0          0          0          0          0          0          0          0          0
  knapsack         :       0.00       0.00      0          0          0          0          0          0          0          0          0          0
  setppc           :       0.24       0.01      3          0          0          0          0          0          0          0          0          0
  linear           :       0.48       0.06      2          0          0          0          0          0          0          0          0          0
  logicor          :       0.00       0.00      0          0          0          0          0          0          0          0          0          0
  benders          :       0.00       0.00      0          0          0          0          0          0          0          0          0          0
  components       :       0.05       0.00      1          0          0          0          0          0          0          0          0          0
  root node        :          -          -      -          9          -          -          9          -          -          -          -          -
Constraints        :     Number  MaxNumber  #Separate #Propagate    #EnfoLP    #EnfoRelax  #EnfoPS    #Check   #ResProp    Cutoffs    DomReds       Cuts    Applied      Conss   Children
  benderslp        :          0          0          0          0      10472          0          0       1509          0          0          0          0          0          0          0
  integral         :          0          0          0          0      10472          0          0       1509          0          0          0          0          0          0      20944
  knapsack         :          0+         1          0        666          0          0          0          0          2          0          1          0          0          0          0
  setppc           :      67583+     67584         11     390003          0          0          0       1504      20333        682     308452          0          0          0          0
  linear           :          0+        12          0      90256          0          0          0          0         21          2         96          0          0          0          0
  logicor          :          0+      2128         11      14061          0          0          0          0        617         15       2807          0          0          0          0
  benders          :          0          0          0          0          0          0          0          2          0          0          0          0          0          0          0
  countsols        :          0          0          0          0          0          0          0          2          0          0          0          0          0          0          0
  components       :          0          0          0          0          0          0          0          0          0          0          0          0          0          0          0
Constraint Timings :  TotalTime  SetupTime   Separate  Propagate     EnfoLP     EnfoPS     EnfoRelax   Check    ResProp    SB-Prop
  benderslp        :       0.04       0.00       0.00       0.00       0.04       0.00       0.00       0.00       0.00       0.00
  integral         :     224.91       0.00       0.00       0.00     224.91       0.00       0.00       0.00       0.00       0.00
  knapsack         :       0.00       0.00       0.00       0.00       0.00       0.00       0.00       0.00       0.00       0.00
  setppc           :       2.51       0.01       0.10       2.34       0.00       0.00       0.00       0.00       0.03       0.03
  linear           :       0.12       0.06       0.00       0.06       0.00       0.00       0.00       0.00       0.00       0.00
  logicor          :       0.07       0.00       0.00       0.07       0.00       0.00       0.00       0.00       0.00       0.00
  benders          :       0.00       0.00       0.00       0.00       0.00       0.00       0.00       0.00       0.00       0.00
  countsols        :       0.00       0.00       0.00       0.00       0.00       0.00       0.00       0.00       0.00       0.00
  components       :       0.10       0.00       0.00       0.10       0.00       0.00       0.00       0.00       0.00       0.00
Propagators        : #Propagate   #ResProp    Cutoffs    DomReds
  dualfix          :          1          0          0          0
  genvbounds       :          0          0          0          0
  nlobbt           :          0          0          0          0
  obbt             :          0          0          0          0
  probing          :          0          0          0          0
  pseudoobj        :      95319         78          0          4
  redcost          :         13          0          0          0
  rootredcost      :          0          0          0          0
  symmetry         :      17450          0          1          5
  vbounds          :     400375          0          0          0
Propagator Timings :  TotalTime  SetupTime   Presolve  Propagate    ResProp    SB-Prop
  dualfix          :       0.01       0.00       0.00       0.01       0.00       0.00
  genvbounds       :       0.27       0.00       0.00       0.27       0.00       0.00
  nlobbt           :       0.00       0.00       0.00       0.00       0.00       0.00
  obbt             :       0.00       0.00       0.00       0.00       0.00       0.00
  probing          :       0.68       0.01       0.67       0.00       0.00       0.00
  pseudoobj        :       1.15       0.00       0.00       1.14       0.01       0.00
  redcost          :       0.23       0.00       0.00       0.23       0.00       0.00
  rootredcost      :       0.29       0.00       0.00       0.29       0.00       0.00
  symmetry         :      63.71       0.00       2.35      61.35       0.00       0.01
  vbounds          :       4.07       0.00       0.03       4.04       0.00       0.00
Orbital fixing     :
  vars fixed to 0  :          5
  vars fixed to 1  :          0
Conflict Analysis  :       Time      Calls    Success    DomReds  Conflicts   Literals    Reconvs ReconvLits   Dualrays   Nonzeros   LP Iters   (pool size: [10000,10000])
  propagation      :       0.06        694        693          -       2111        9.9        208       12.4          -          -          -
  infeasible LP    :       0.09          9          9          -         56       24.3          0        0.0          9       49.3          0
  bound exceed. LP :       0.20          5          5          -         22       22.7          3       13.7          5       31.2         20
  strong branching :       0.00          0          0          -          0        0.0          0        0.0          -          -          0
  pseudo solution  :       0.00          0          0          -          0        0.0          0        0.0          -          -          -
  applied globally :       0.01          -          -          0       2132        8.9          -          -         14          -          -
  applied locally  :          -          -          -          0          0        0.0          -          -          0          -          -
Separators         :   ExecTime  SetupTime      Calls    Cutoffs    DomReds       Cuts    Applied      Conss
  cut pool         :       1.45                  1669          -          -      37067          -          -    (maximal pool size: 8814)
  aggregation      :       1.29       0.00         64          0          0          4          0          0
  cgmip            :       0.00       0.00          0          0          0          0          0          0
  clique           :     770.52       0.00         11          0          0          0          0          0
  closecuts        :       0.00       0.00          0          0          0          0          0          0
  cmir             :       0.00       0.00          0          0          0          0          0          0
  convexproj       :       0.00       0.00          0          0          0          0          0          0
  disjunctive      :       0.00       0.00          0          0          0          0          0          0
  eccuts           :       0.00       0.00          0          0          0          0          0          0
  flowcover        :       0.00       0.00          0          0          0          0          0          0
  gauge            :       0.00       0.00          0          0          0          0          0          0
  gomory           :       3.84       0.00         63          0          0       4650       1588          0
  impliedbounds    :       0.19       0.00         64          0          0          0          0          0
  intobj           :       0.00       0.00          0          0          0          0          0          0
  mcf              :       0.05       0.00          1          0          0          0          0          0
  oddcycle         :       0.00       0.00          0          0          0          0          0          0
  rapidlearning    :       0.18       0.00          0          0          0          0          0          0
  strongcg         :       3.92       0.00         64          0          0       6560        486          0
  zerohalf         :     158.43       0.00         64          0          0        159       1016          0
Pricers            :   ExecTime  SetupTime      Calls       Vars
  problem variables:       0.00          -          0          0
Branching Rules    :   ExecTime  SetupTime   BranchLP  BranchExt   BranchPS    Cutoffs    DomReds       Cuts      Conss   Children
  allfullstrong    :       0.00       0.00          0          0          0          0          0          0          0          0
  cloud            :       0.00       0.00          0          0          0          0          0          0          0          0
  distribution     :       0.00       0.00          0          0          0          0          0          0          0          0
  fullstrong       :       0.00       0.00          0          0          0          0          0          0          0          0
  inference        :       0.00       0.00          0          0          0          0          0          0          0          0
  leastinf         :       0.00       0.00          0          0          0          0          0          0          0          0
  lookahead        :       0.00       0.00          0          0          0          0          0          0          0          0
  mostinf          :       0.00       0.00          0          0          0          0          0          0          0          0
  multaggr         :       0.00       0.00          0          0          0          0          0          0          0          0
  nodereopt        :       0.00       0.00          0          0          0          0          0          0          0          0
  pscost           :       0.00       0.00          0          0          0          0          0          0          0          0
  random           :       0.00       0.00          0          0          0          0          0          0          0          0
  relpscost        :     224.87       0.00      10472          0          0          0          0          0          0      20944
  vanillafullstrong:       0.00       0.00          0          0          0          0          0          0          0          0
Primal Heuristics  :   ExecTime  SetupTime      Calls      Found       Best
  LP solutions     :       0.00          -          -          0          0
  relax solutions  :       0.00          -          -          0          0
  pseudo solutions :       0.00          -          -          0          0
  strong branching :       0.00          -          -          0          0
  actconsdiving    :       0.00       0.00          0          0          0
  adaptivediving   :      17.12       0.00          6          0          0
  alns             :       3.41       0.00          7          0          0
  bound            :       0.00       0.00          0          0          0
  clique           :       0.51       0.00          1          0          0
  coefdiving       :       0.00       0.00          0          0          0
  completesol      :       0.00       0.00          0          0          0
  conflictdiving   :      39.13       0.00         23          0          0
  crossover        :       0.02       0.00          0          0          0
  dins             :       0.00       0.00          0          0          0
  distributiondivin:      75.76       0.00         16          1          1
  dualval          :       0.00       0.00          0          0          0
  farkasdiving     :       0.00       0.00          0          0          0
  feaspump         :     164.28       0.00          2          0          0
  fixandinfer      :       0.00       0.00          0          0          0
  fracdiving       :       5.27       0.00         26          0          0
  gins             :       0.19       0.00          0          0          0
  guideddiving     :       3.73       0.00         20          0          0
  indicator        :       0.00       0.00          0          0          0
  intdiving        :       0.00       0.00          0          0          0
  intshifting      :       0.00       0.00          0          0          0
  linesearchdiving :      15.67       0.00         20          0          0
  localbranching   :       0.00       0.00          0          0          0
  locks            :       0.20       0.00          1          0          0
  lpface           :       4.71       0.00          0          0          0
  mpec             :       0.00       0.00          0          0          0
  multistart       :       0.00       0.00          0          0          0
  mutation         :       0.00       0.00          0          0          0
  nlpdiving        :       0.00       0.00          0          0          0
  objpscostdiving  :    1644.05       0.00          3          0          0
  octane           :       0.00       0.00          0          0          0
  ofins            :       0.01       0.00          0          0          0
  oneopt           :       0.06       0.00          1          0          0
  padm             :       0.00       0.00          0          0          0
  proximity        :       0.00       0.00          0          0          0
  pscostdiving     :      20.52       0.00         19          0          0
  randrounding     :      10.04       0.00       1512          0          0
  rens             :       0.00       0.00          0          0          0
  reoptsols        :       0.00       0.00          0          0          0
  repair           :       0.00       0.00          0          0          0
  rins             :      10.01       0.00         10          0          0
  rootsoldiving    :       6.18       0.00          3          0          0
  rounding         :       8.61       0.00       1496          0          0
  shiftandpropagate:       0.40       0.00          1          0          0
  shifting         :      39.96       0.00        575          0          0
  simplerounding   :       0.02       0.00      11793          0          0
  subnlp           :       0.00       0.00          0          0          0
  trivial          :       0.08       0.00          2          0          0
  trivialnegation  :       0.00       0.00          0          0          0
  trustregion      :       0.00       0.00          0          0          0
  trysol           :       0.06       0.00          0          0          0
  twoopt           :       0.00       0.00          0          0          0
  undercover       :       0.00       0.00          0          0          0
  vbounds          :       7.01       0.00          1          0          0
  veclendiving     :      20.16       0.00         23          0          0
  zeroobj          :       0.00       0.00          0          0          0
  zirounding       :       4.84       0.00       1000          0          0
  other solutions  :          -          -          -          0          -
Diving (single)    :      Calls      Nodes   LP Iters Backtracks  Conflicts   MinDepth   MaxDepth   AvgDepth  RoundSols  NLeafSols  MinSolDpt  MaxSolDpt  AvgSolDpt
  actconsdiving    :          0          -          -          -          -          -          -          -          -          -          -          -          -
  coefdiving       :          0          -          -          -          -          -          -          -          -          -          -          -          -
  conflictdiving   :         23       6841      20221        105        459         72       3083      471.4          0          -          -          -          -
  distributiondivin:         16       3347      27431         28        146         10       1395      487.9          0          1       1395       1395     1395.0
  farkasdiving     :          0          -          -          -          -          -          -          -          -          -          -          -          -
  fracdiving       :         26       1618          0         52        221         21        612      221.1          0          -          -          -          -
  guideddiving     :         20       1212          0         39        178         56        653      261.8          0          -          -          -          -
  linesearchdiving :         20       5759          0         54        286         71       1025      487.7          0          -          -          -          -
  pscostdiving     :         19      21461      12498         26        161        575       3792     1380.2          0          -          -          -          -
  veclendiving     :         23       2810       8154         75        329         89        704      294.0          0          -          -          -          -
Diving (adaptive)  :      Calls      Nodes   LP Iters Backtracks  Conflicts   MinDepth   MaxDepth   AvgDepth  RoundSols  NLeafSols  MinSolDpt  MaxSolDpt  AvgSolDpt
  actconsdiving    :          2        433          0          5         16        321        382      351.5          0          -          -          -          -
  coefdiving       :          3       1426          0          4         17        589        849      676.0          0          -          -          -          -
  conflictdiving   :          0          -          -          -          -          -          -          -          -          -          -          -          -
  distributiondivin:          0          -          -          -          -          -          -          -          -          -          -          -          -
  farkasdiving     :          0          -          -          -          -          -          -          -          -          -          -          -          -
  fracdiving       :          0          -          -          -          -          -          -          -          -          -          -          -          -
  guideddiving     :          0          -          -          -          -          -          -          -          -          -          -          -          -
  linesearchdiving :          0          -          -          -          -          -          -          -          -          -          -          -          -
  pscostdiving     :          1       1685      10000          0          0       1699       1699     1699.0          0          -          -          -          -
  veclendiving     :          0          -          -          -          -          -          -          -          -          -          -          -          -
Neighborhoods      :      Calls  SetupTime  SolveTime SolveNodes       Sols       Best       Exp3  EpsGreedy        UCB TgtFixRate  Opt  Inf Node Stal  Sol  Usr Othr Actv
  rens             :          1       0.01       0.00          0          0          0    0.00000   -1.00000    0.06305      0.900    0    0    0    0    0    0    1    1
  rins             :          0       0.00       0.00          0          0          0    0.00000   -1.00000    0.06305      0.900    0    0    0    0    0    0    0    1
  mutation         :          2       0.63       0.23          0          0          0    0.00000   -1.00000    0.54459      0.550    0    2    0    0    0    0    0    1
  localbranching   :          2       0.65       0.24          0          0          0    0.00000   -1.00000    0.54459      0.550    0    2    0    0    0    0    0    1
  crossover        :          0       0.00       0.00          0          0          0    0.00000   -1.00000    0.06305      0.900    0    0    0    0    0    0    0    1
  proximity        :          0       0.00       0.00          0          0          0    0.00000   -1.00000    0.06305      0.900    0    0    0    0    0    0    0    1
  zeroobjective    :          2       0.66       0.29          0          0          0    0.00000   -1.00000    0.54459      0.550    0    2    0    0    0    0    0    1
  dins             :          0       0.00       0.00          0          0          0    0.00000   -1.00000    0.06305      0.900    0    0    0    0    0    0    0    1
  trustregion      :          0       0.00       0.00          0          0          0    0.00000   -1.00000    1.00000      0.900    0    0    0    0    0    0    0    0
LP                 :       Time      Calls Iterations  Iter/call   Iter/sec  Time-0-It Calls-0-It    ItLimit
  primal LP        :      32.10         51          0       0.00       0.00      32.10         51
  dual LP          :    3616.73      18672     617379      33.12     170.70       0.59         29
  lex dual LP      :       0.00          0          0       0.00          -
  barrier LP       :       0.00          0          0       0.00          -       0.00          0
  resolve instable :       0.00          0          0       0.00          -
  diving/probing LP:    1859.34       2055     196491      95.62     105.68
  strong branching :      57.73         19      17377     914.58     301.00          -          -         29
    (at root node) :          -         19      17377     914.58          -
  conflict analysis:       0.14          2         20      10.00     142.86
B&B Tree           :
  number of runs   :          1
  nodes            :      17451 (10472 internal, 6979 leaves)
  feasible leaves  :          0
  infeas. leaves   :        109
  objective leaves :       6869
  nodes (total)    :      17451 (10472 internal, 6979 leaves)
  nodes left       :       2408
  max depth        :        882
  max depth (total):        882
  backtracks       :       3588 (20.6%)
  early backtracks :          0 (0.0%)
  nodes exc. ref.  :          0 (0.0%)
  delayed cutoffs  :       1087
  repropagations   :       4893 (19814 domain reductions, 20 cutoffs)
  avg switch length:       7.59
  switching time   :      36.51
Estim. Tree Size   :      37074
Estimation Tree    : 20945 nodes (18537 visited, 10472 inner, 8065 leaves, 2408 open), weight: 0.5157 completed 0.1891
Estimations        :      estim      value      trend resolution     smooth
  wbe              :      31274          -          -          -          -
  tree-profile     :         -1          -          -          -          -
  gap              :      37074    0.75000    0.00000          8      37053
  tree-weight      :      37074    0.51575    0.00000          8      37053
  leaf-frequency   :      37074    0.43505   -0.00001          8      37448
  ssg              :      37074    1.00000   -0.00000          8      37053
  open-nodes       :      37074 2408.00000    0.98510          8      38942
Root Node          :
  First LP value   : +3.00000000000000e+00
  First LP Iters   :          1 (0.20 Iter/sec)
  First LP Time    :       5.09
  Final Dual Bound : +3.00000000000000e+00
  Final Root Iters :      26875
  Root LP Estimate : +3.07652955630927e+00
Solution           :
  Solutions found  :          1 (1 improvements)
  First Solution   : +4.00000000000000e+00   (in run 1, after 21 nodes, 1284.63 seconds, depth 1395, found by <distributiondiving>)
  Gap First Sol.   :      33.33 %
  Gap Last Sol.    :      33.33 %
  Primal Bound     : +4.00000000000000e+00   (in run 1, after 21 nodes, 1284.63 seconds, depth 1395, found by <distributiondiving>)
  Dual Bound       : +3.00000000000000e+00
  Gap              :      33.33 %
Integrals          :      Total       Avg%
  primal-dual      :  276348.50      38.38
  primal-ref       :          -          - (not evaluated)
  dual-ref         :          -          - (not evaluated)

SCIP> checksol

check best solution
solution is feasible in original problem
Violation          :    absolute    relative
  bounds           : 0.00000e+00 0.00000e+00
  integrality      : 0.00000e+00           -
  LP rows          : 0.00000e+00 0.00000e+00
  constraints      : 0.00000e+00 0.00000e+00

SCIP> write sol /local/tmp/bzfhende-tmpdir/bzfhende.instancegroups_chromaticindexx.22_chromaticindex1024-7.scip.M620v2.periodic_report.sol

written solution information to file </local/tmp/bzfhende-tmpdir/bzfhende.instancegroups_chromaticindex.22_chromaticindex1024-7.scip.M620v2.periodic_report.sol>

SCIP> quit

Read MPS: 1
MIP has 73728 vars and 67583 constraints
Read SOL: 1
Objective value computed by solver: 4

Integrality tolerance: 1/10000
Linear tolerance: 1/10000
Objective tolerance: 1/10000

Check SOL: Integrality 1 Constraints 1 Objective 1
Maximum violations: Integrality 0 Constraints 0 Objective 0
@04 1583666796
-----------------------------
So 8. Mär 12:26:36 CET 2020
-----------------------------

=ready=
